
Gurobi 13.0.2 (win64) logging started Thu Jul 23 08:05:57 2026

Set parameter LogFile to value "E:\codes\ExactEBRP\results\gf_cplex_equivalent_gurobi_replica_round28\runs\stage3__V12_M2__c2_paper__300s\external\native_logs\L2.0.1.1.0.0.0.1.1_terminal_mip.gurobi.log"
Gurobi Optimizer version 13.0.2 build v13.0.2rc1 (win64 - Windows 10.0 (19045.2))

CPU model: 12th Gen Intel(R) Core(TM) i7-12700KF, instruction set [SSE2|AVX|AVX2]
Thread count: 12 physical cores, 20 logical processors, using up to 1 threads

Non-default parameters:
TimeLimit  2.2851563980000003e+02
MIPGap  0
MIPGapAbs  0
LogToConsole  0
Threads  1

Optimize a model with 11351 rows, 1034 columns and 113600 nonzeros (Min)
Model fingerprint: 0x522ca951
Model has 13 linear objective coefficients
Variable types: 516 continuous, 518 integer (434 binary)
Coefficient statistics:
  Matrix range     [5e-05, 1e+05]
  Objective range  [5e-05, 1e+00]
  Bounds range     [4e-01, 3e+02]
  RHS range        [2e-01, 1e+06]

Presolve removed 1185 rows and 33 columns
Presolve time: 0.27s
Presolved: 10166 rows, 1001 columns, 134213 nonzeros
Variable types: 487 continuous, 514 integer (430 binary)
Root relaxation presolved: 10127 rows, 978 columns, 134126 nonzeros


Root relaxation: objective 6.524857e-01, 1232 iterations, 0.16 seconds (0.42 work units)

    Nodes    |    Current Node    |     Objective Bounds      |     Work
 Expl Unexpl |  Obj  Depth IntInf | Incumbent    BestBd   Gap | It/Node Time

     0     0    0.65249    0  135          -    0.65249      -     -    0s
     0     0    0.66639    0  156          -    0.66639      -     -    0s
     0     0    0.66682    0  149          -    0.66682      -     -    0s
     0     0    0.66762    0  174          -    0.66762      -     -    1s
     0     0    0.66810    0  173          -    0.66810      -     -    1s
     0     0    0.66926    0  153          -    0.66926      -     -    1s
     0     0    0.66970    0  158          -    0.66970      -     -    2s
     0     0    0.67115    0  164          -    0.67115      -     -    2s
     0     0    0.67149    0  174          -    0.67149      -     -    2s
     0     0    0.67247    0  157          -    0.67247      -     -    3s
     0     0    0.67250    0  167          -    0.67250      -     -    3s
     0     0    0.67296    0  157          -    0.67296      -     -    3s
     0     0    0.67338    0  159          -    0.67338      -     -    3s
     0     0    0.67380    0  143          -    0.67380      -     -    3s
     0     0    0.67391    0  187          -    0.67391      -     -    3s
     0     0    0.67416    0  177          -    0.67416      -     -    4s
     0     0    0.67420    0  181          -    0.67420      -     -    4s
     0     0    0.67458    0  146          -    0.67458      -     -    4s
     0     0    0.67471    0  164          -    0.67471      -     -    4s
     0     0    0.67478    0  162          -    0.67478      -     -    5s
     0     0    0.67479    0  158          -    0.67479      -     -    5s
     0     0    0.67479    0  158          -    0.67479      -     -    5s
     0     0    0.67480    0  159          -    0.67480      -     -    5s
     0     0    0.67506    0  185          -    0.67506      -     -    6s
     0     0 infeasible    0               - infeasible      -     -    6s

Cutting planes:
  Learned: 6
  Cover: 21
  Implied bound: 76
  Clique: 9
  MIR: 62
  StrongCG: 4
  Flow cover: 44
  Mod-K: 1
  Network: 11
  RLT: 12
  Relax-and-lift: 67
  BQP: 10
  PSD: 1

Explored 1 nodes (7991 simplex iterations) in 6.21 seconds (8.67 work units)
Thread count was 1 (of 20 available processors)

Solution count 0

Model is infeasible
Best objective -, best bound -, gap -

User-callback calls 3131, time in user-callback 0.00 sec
